Optimal - objective value -20.00000000
     13 x_13                       1                       0
     21 x_21                       1                       1
     23 x_23                       1                      -1
     26 x_26                       1                       0
     33 x_33                       1                       0
     39 x_39                       1                       1
     40 x_40                       1                       0
     44 x_44                       1                       1
     49 x_49                       1                       1
     50 x_50                       1                       0
     62 x_62                       1                       0
     71 x_71                       1                       1
     83 x_83                       1                      -1
     85 x_85                       1                       0
     89 x_89                       1                       3
     98 x_98                       1                       0
     99 x_99                       1                       0
    101 x_101                      1                     1.5
    102 x_102                      1                       0
    105 x_105                      1                       1
